sat
(
  (define-fun C2_VM4 () Int
    0)
  (define-fun C2_VM1 () Int
    0)
  (define-fun C3_VM2 () Int
    0)
  (define-fun C5_VM2 () Int
    0)
  (define-fun VM4Type () Int
    182)
  (define-fun ProcProv1 () Int
    2)
  (define-fun ProcProv4 () Int
    4)
  (define-fun PriceProv2 () Int
    210)
  (define-fun C1_VM3 () Int
    0)
  (define-fun StorageProv5 () Int
    2000)
  (define-fun MemProv1 () Int
    3750)
  (define-fun C4_VM1 () Int
    1)
  (define-fun C4_VM3 () Int
    0)
  (define-fun C5_VM5 () Int
    0)
  (define-fun C5_VM4 () Int
    1)
  (define-fun C3_VM1 () Int
    0)
  (define-fun C3_VM5 () Int
    1)
  (define-fun MemProv3 () Int
    3750)
  (define-fun C3_VM3 () Int
    0)
  (define-fun C2_VM2 () Int
    0)
  (define-fun VM2Type () Int
    182)
  (define-fun StorageProv3 () Int
    2000)
  (define-fun StorageProv4 () Int
    2000)
  (define-fun C3_VM4 () Int
    0)
  (define-fun PriceProv4 () Int
    210)
  (define-fun VM1Type () Int
    225)
  (define-fun PriceProv3 () Int
    126)
  (define-fun VM3Type () Int
    225)
  (define-fun PriceProv1 () Int
    126)
  (define-fun ProcProv5 () Int
    4)
  (define-fun VM5Type () Int
    182)
  (define-fun C1_VM5 () Int
    0)
  (define-fun C4_VM4 () Int
    0)
  (define-fun C1_VM4 () Int
    0)
  (define-fun MemProv4 () Int
    7500)
  (define-fun C1_VM2 () Int
    1)
  (define-fun MemProv5 () Int
    7500)
  (define-fun ProcProv2 () Int
    4)
  (define-fun C4_VM5 () Int
    0)
  (define-fun C2_VM5 () Int
    0)
  (define-fun C5_VM3 () Int
    0)
  (define-fun StorageProv2 () Int
    2000)
  (define-fun C4_VM2 () Int
    0)
  (define-fun PriceProv5 () Int
    210)
  (define-fun StorageProv1 () Int
    2000)
  (define-fun C2_VM3 () Int
    1)
  (define-fun ProcProv3 () Int
    2)
  (define-fun MemProv2 () Int
    7500)
  (define-fun C5_VM1 () Int
    0)
  (define-fun C1_VM1 () Int
    0)
)
(objectives
 ( 5)
 ((+ 0 PriceProv1 PriceProv2 PriceProv3 PriceProv4 PriceProv5) 882)
)
(:added-eqs                   221599
 :arith-eq-adapter            114546
 :arith-bound-propagations-lp 52067
 :arith-conflicts             127
 :arith-diseq                 522619
 :arith-fixed-eqs             1354
 :arith-lower                 798747
 :arith-make-feasible         92727
 :arith-max-columns           337
 :arith-max-rows              17
 :arith-upper                 261071
 :binary-propagations         750302
 :bv-bit2core                 7873
 :bv-dynamic-diseqs           338127
 :bv->core-eq                 1757
 :conflicts                   4913
 :decisions                   156813
 :del-clause                  472046
 :final-checks                135
 :max-memory                  67.68
 :maxsat-cores                5
 :memory                      65.38
 :minimized-lits              296853
 :mk-bool-var                 223217
 :mk-clause                   472181
 :mk-clause-binary            5282
 :num-allocs                  2757130860
 :num-checks                  117
 :pb-conflicts                33
 :pb-predicates               4
 :pb-propagations             482
 :pb-resolves                 33
 :propagations                2826672
 :restarts                    37
 :rlimit-count                17621730
 :solve-eqs-elim-vars         2
 :solve-eqs-steps             16
 :time                        1.49
 :total-time                  1.50)
